% demand
num_movements = 17;
loading_factor = [900, 1700, 900, 1800, 850, 850, 950, 1100, 1200, 1900, 1700, 1600, 1100, 1150, 1850, 1300, 950];
pickup_time = [0, 0, 0, 0, 0, 0, 2, 2, 4, 4, 4, 5, 5, 5, 5, 5, 6];
delivery_time = [3, 2, 3, 2, 2, 2, 5, 5, 5, 5, 5, 6, 6, 7, 6, 6, 7];

% transporter definition
total_capacity = 7000;
num_decks = 3;
capacity = [3000, 1000, 3000];

% ways out of decks
num_ways_out = 1;
paths_out = array3d(decks, ways_out, decks, [
% ways out of deck d1
2, 3, 0, 

% ways out of deck d2
3, 0, 0, 

% ways out of deck d3
0, 0, 0,	

]);

